sat
(:max-memory         18.62
 :memory             18.42
 :nlsat-arith-var    3
 :nlsat-atoms        11
 :nlsat-bool-var     1
 :nlsat-clauses      8
 :nlsat-conflicts    1
 :nlsat-propagations 11
 :nlsat-stages       5
 :num-allocs         81486
 :rlimit-count       11896
 :time               0.01
 :total-time         0.01)
